<number of tasks>
89

<cycle time>
75

<task times>
1 28
2 17
3 7
4 10
5 12
6 16
7 13
8 8
9 13
10 24
11 16
12 24
13 12
14 20
15 22
16 22
17 22
18 47
19 6
20 12
21 6
22 22
23 7
24 14
25 68
26 15
27 8
28 74
29 32
30 11
31 18
32 15
33 42
34 27
35 38
36 38
37 26
38 35
39 31
40 8
41 14
42 8
43 8
44 8
45 17
46 7
47 19
48 12
49 24
50 26
51 22
52 14
53 27
54 60
55 4
56 2
57 1
58 9
59 5
60 6
61 7
62 12
63 2
64 11
65 14
66 6
67 21
68 14
69 1
70 6
71 21
72 11
73 14
74 28
75 12
76 11
77 30
78 22
79 14
80 31
81 18
82 16
83 7
84 38
85 8
86 31
87 29
88 12
89 18

<precedence relations>
1,2
2,3
3,4
4,5
4,6
4,7
4,8
4,9
5,10
6,11
7,12
8,18
9,18
10,14
11,12
12,13
13,14
14,15
14,16
15,17
16,54
17,18
18,19
18,20
19,22
20,21
20,28
21,54
22,23
23,24
24,25
25,26
25,27
25,29
26,37
27,33
28,29
29,31
30,54
31,32
32,33
33,34
34,35
35,36
35,37
36,38
37,38
38,39
39,40
39,41
39,42
39,43
40,44
41,53
42,53
43,45
44,52
45,46
46,47
47,48
47,49
49,50
50,51
51,52
52,53
53,68
53,69
53,70
53,71
54,55
55,56
56,57
57,58
57,59
57,60
57,61
57,62
57,63
57,64
57,65
57,66
58,67
59,67
60,67
61,67
62,67
63,67
64,67
65,67
66,67
67,73
68,72
69,72
70,72
71,73
72,78
72,80
73,74
74,75
74,76
75,77
76,81
77,78
78,79
79,81
80,81
81,82
81,84
81,85
82,83
83,86
84,86
85,86
86,87
87,88
87,89

<setup times forward>
1,30:1
2,30:1
3,30:1
4,5:1
4,6:1
4,9:1
4,30:1
5,7:1
5,8:1
5,9:2
5,10:2
5,13:2
5,30:2
6,7:1
6,8:1
6,9:2
6,10:2
6,30:2
7,5:1
7,6:1
7,9:1
7,10:1
7,11:1
7,12:1
7,30:1
8,5:1
8,6:1
8,9:1
8,10:1
8,11:1
8,12:1
8,13:1
8,14:1
8,30:1
9,5:2
9,6:2
9,7:1
9,8:1
9,11:2
9,12:2
9,15:1
9,16:1
9,17:1
9,18:1
10,6:2
10,7:1
10,8:1
10,11:2
10,12:2
11,7:1
11,8:1
11,9:2
11,10:2
11,30:2
12,8:1
12,9:2
12,10:2
12,13:2
12,30:2
13,5:2
13,8:1
14,8:1
14,15:1
14,16:1
15,9:1
15,30:1
16,9:1
16,22:1
16,23:1
16,24:1
16,26:2
16,27:1
16,28:2
16,29:1
16,30:1
16,31:1
16,32:1
16,33:1
16,34:1
16,38:1
16,39:1
16,40:2
16,41:1
16,42:1
16,43:2
16,44:2
16,45:2
16,46:2
16,47:2
16,48:1
16,49:2
16,50:2
16,51:2
16,52:1
16,53:1
16,54:2
16,68:1
16,69:1
16,70:1
16,71:1
16,72:1
17,9:1
17,30:1
18,30:1
19,22:1
19,28:2
19,30:1
19,54:2
19,58:1
19,59:2
19,60:1
19,61:1
19,66:2
19,67:1
20,22:1
20,23:1
20,24:1
20,26:2
20,27:1
20,28:2
20,30:1
21,22:1
21,23:1
21,24:1
21,26:2
21,27:1
21,28:2
21,29:1
21,30:1
21,31:1
21,32:1
21,33:1
21,34:1
21,38:1
21,39:1
21,40:2
21,41:1
21,42:1
21,43:2
21,44:2
21,45:2
21,46:2
21,47:2
21,48:1
21,49:2
21,50:2
21,51:2
21,52:1
21,53:1
21,54:2
21,68:1
21,69:1
21,70:1
21,71:1
21,72:1
22,16:1
22,20:1
22,21:1
22,28:1
22,54:1
22,55:1
22,56:1
22,57:1
22,58:2
22,59:1
22,60:2
22,62:1
22,63:1
22,64:1
22,65:1
22,66:1
23,16:1
23,20:1
23,21:1
23,28:1
23,54:1
23,55:1
23,56:1
23,57:1
23,58:2
23,59:1
23,60:2
23,62:1
23,63:1
23,64:1
23,65:1
23,66:1
24,16:1
24,20:1
24,21:1
24,25:1
24,28:1
24,54:1
24,55:1
24,56:1
24,57:1
24,58:2
24,59:1
24,60:2
24,62:1
24,63:1
24,64:1
24,65:1
24,66:1
25,26:2
25,27:1
25,28:2
25,29:1
25,30:1
25,54:2
25,58:1
25,59:2
25,60:1
25,61:1
25,66:2
25,67:1
26,16:2
26,20:2
26,21:2
26,27:3
26,29:3
26,30:1
26,31:3
26,32:3
26,33:1
26,34:1
26,35:2
26,36:2
26,37:2
26,55:2
26,56:2
26,57:2
26,58:3
26,60:3
26,61:1
26,62:2
26,63:2
26,64:2
26,65:2
26,67:1
27,16:1
27,20:1
27,21:1
27,26:3
27,28:3
27,30:2
27,33:2
27,54:3
27,55:1
27,56:1
27,57:1
27,59:3
27,61:2
27,62:1
27,63:1
27,64:1
27,65:1
27,66:3
27,67:2
28,16:2
28,19:2
28,21:2
28,22:1
28,23:1
28,24:1
28,25:2
28,27:3
28,29:3
28,30:1
28,55:2
28,56:2
28,57:2
28,58:3
28,60:3
28,61:1
28,62:2
28,63:2
28,64:2
28,65:2
28,67:1
29,16:1
29,21:1
29,26:3
29,30:2
29,54:3
29,55:1
29,56:1
29,57:1
29,59:3
29,61:2
29,62:1
29,63:1
29,64:1
29,65:1
29,66:3
29,67:2
30,1:1
30,2:1
30,3:1
30,4:1
30,5:2
30,6:2
30,7:1
30,8:1
30,11:2
30,12:2
30,15:1
30,16:1
30,17:1
30,18:1
30,19:1
30,20:1
30,21:1
30,25:1
30,26:1
30,27:2
30,28:1
30,29:2
30,31:2
30,32:2
30,35:1
30,36:1
30,37:1
30,38:2
30,39:2
30,40:1
30,41:2
30,42:2
30,43:1
30,44:1
30,45:1
30,46:1
30,47:1
30,48:2
30,49:1
30,50:1
30,51:1
30,52:2
30,53:2
30,54:1
30,70:2
30,80:1
31,16:1
31,21:1
31,26:3
31,30:2
31,54:3
31,55:1
31,56:1
31,57:1
31,59:3
31,61:2
31,62:1
31,63:1
31,64:1
31,65:1
31,66:3
31,67:2
32,16:1
32,21:1
32,26:3
32,30:2
32,33:2
32,54:3
32,55:1
32,56:1
32,57:1
32,59:3
32,61:2
32,62:1
32,63:1
32,64:1
32,65:1
32,66:3
32,67:2
33,16:1
33,21:1
33,26:1
33,54:1
33,55:1
33,56:1
33,57:1
33,58:2
33,59:1
33,60:2
33,62:1
33,63:1
33,64:1
33,65:1
33,66:1
34,16:1
34,21:1
34,26:1
34,35:1
34,54:1
34,55:1
34,56:1
34,57:1
34,58:2
34,59:1
34,60:2
34,62:1
34,63:1
34,64:1
34,65:1
34,66:1
35,26:2
35,30:1
35,54:2
35,58:1
35,59:2
35,60:1
35,61:1
35,66:2
35,67:1
36,26:2
36,30:1
36,38:1
36,54:2
36,58:1
36,59:2
36,60:1
36,61:1
36,66:2
36,67:1
37,30:1
37,38:1
37,54:2
37,58:1
37,59:2
37,60:1
37,61:1
37,66:2
37,67:1
38,16:1
38,21:1
38,30:2
38,54:3
38,55:1
38,56:1
38,57:1
38,59:3
38,61:2
38,62:1
38,63:1
38,64:1
38,65:1
38,66:3
38,67:2
39,16:1
39,21:1
39,30:2
39,40:3
39,43:3
39,54:3
39,55:1
39,56:1
39,57:1
39,59:3
39,61:2
39,62:1
39,63:1
39,64:1
39,65:1
39,66:3
39,67:2
40,16:2
40,21:2
40,30:1
40,41:3
40,42:3
40,48:3
40,55:2
40,56:2
40,57:2
40,58:3
40,60:3
40,61:1
40,62:2
40,63:2
40,64:2
40,65:2
40,67:1
41,16:1
41,21:1
41,30:2
41,40:3
41,43:3
41,44:3
41,45:3
41,46:3
41,47:3
41,49:3
41,50:3
41,51:3
41,54:3
41,55:1
41,56:1
41,57:1
41,59:3
41,61:2
41,62:1
41,63:1
41,64:1
41,65:1
41,66:3
41,67:2
42,16:1
42,21:1
42,30:2
42,40:3
42,43:3
42,44:3
42,45:3
42,46:3
42,47:3
42,49:3
42,50:3
42,51:3
42,54:3
42,55:1
42,56:1
42,57:1
42,59:3
42,61:2
42,62:1
42,63:1
42,64:1
42,65:1
42,66:3
42,67:2
43,16:2
43,21:2
43,30:1
43,41:3
43,42:3
43,55:2
43,56:2
43,57:2
43,58:3
43,60:3
43,61:1
43,62:2
43,63:2
43,64:2
43,65:2
43,67:1
44,16:2
44,21:2
44,30:1
44,41:3
44,42:3
44,48:3
44,52:3
44,55:2
44,56:2
44,57:2
44,58:3
44,60:3
44,61:1
44,62:2
44,63:2
44,64:2
44,65:2
44,67:1
45,16:2
45,21:2
45,30:1
45,41:3
45,42:3
45,55:2
45,56:2
45,57:2
45,58:3
45,60:3
45,61:1
45,62:2
45,63:2
45,64:2
45,65:2
45,67:1
46,16:2
46,21:2
46,30:1
46,41:3
46,42:3
46,55:2
46,56:2
46,57:2
46,58:3
46,60:3
46,61:1
46,62:2
46,63:2
46,64:2
46,65:2
46,67:1
47,16:2
47,21:2
47,30:1
47,41:3
47,42:3
47,48:3
47,55:2
47,56:2
47,57:2
47,58:3
47,60:3
47,61:1
47,62:2
47,63:2
47,64:2
47,65:2
47,67:1
48,16:1
48,21:1
48,30:2
48,40:3
48,44:3
48,49:3
48,50:3
48,51:3
48,54:3
48,55:1
48,56:1
48,57:1
48,59:3
48,61:2
48,62:1
48,63:1
48,64:1
48,65:1
48,66:3
48,67:2
48,68:2
48,69:2
48,71:2
48,72:2
48,73:1
48,74:1
48,80:1
48,84:3
48,86:3
49,16:2
49,21:2
49,30:1
49,41:3
49,42:3
49,48:3
49,55:2
49,56:2
49,57:2
49,58:3
49,60:3
49,61:1
49,62:2
49,63:2
49,64:2
49,65:2
49,67:1
50,16:2
50,21:2
50,30:1
50,41:3
50,42:3
50,48:3
50,55:2
50,56:2
50,57:2
50,58:3
50,60:3
50,61:1
50,62:2
50,63:2
50,64:2
50,65:2
50,67:1
51,16:2
51,21:2
51,30:1
51,41:3
51,42:3
51,48:3
51,52:3
51,55:2
51,56:2
51,57:2
51,58:3
51,60:3
51,61:1
51,62:2
51,63:2
51,64:2
51,65:2
51,67:1
52,16:1
52,21:1
52,30:2
52,54:3
52,55:1
52,56:1
52,57:1
52,59:3
52,61:2
52,62:1
52,63:1
52,64:1
52,65:1
52,66:3
52,67:2
53,16:1
53,21:1
53,30:2
53,54:3
53,55:1
53,56:1
53,57:1
53,59:3
53,61:2
53,62:1
53,63:1
53,64:1
53,65:1
53,66:3
53,67:2
53,68:2
53,69:2
53,71:2
54,19:2
54,22:1
54,23:1
54,24:1
54,25:2
54,27:3
54,29:3
54,31:3
54,32:3
54,33:1
54,34:1
54,35:2
54,36:2
54,37:2
54,38:3
54,39:3
54,41:3
54,42:3
54,48:3
54,52:3
54,53:3
54,55:2
54,68:1
54,69:1
54,70:3
54,71:1
54,72:1
54,80:2
55,22:1
55,23:1
55,24:1
55,26:2
55,27:1
55,28:2
55,29:1
55,31:1
55,32:1
55,33:1
55,34:1
55,38:1
55,39:1
55,40:2
55,41:1
55,42:1
55,43:2
55,44:2
55,45:2
55,46:2
55,47:2
55,48:1
55,49:2
55,50:2
55,51:2
55,52:1
55,53:1
55,68:1
55,69:1
55,70:1
55,71:1
55,72:1
56,22:1
56,23:1
56,24:1
56,26:2
56,27:1
56,28:2
56,29:1
56,31:1
56,32:1
56,33:1
56,34:1
56,38:1
56,39:1
56,40:2
56,41:1
56,42:1
56,43:2
56,44:2
56,45:2
56,46:2
56,47:2
56,48:1
56,49:2
56,50:2
56,51:2
56,52:1
56,53:1
56,68:1
56,69:1
56,70:1
56,71:1
56,72:1
57,22:1
57,23:1
57,24:1
57,26:2
57,27:1
57,28:2
57,29:1
57,31:1
57,32:1
57,33:1
57,34:1
57,38:1
57,39:1
57,40:2
57,41:1
57,42:1
57,43:2
57,44:2
57,45:2
57,46:2
57,47:2
57,48:1
57,49:2
57,50:2
57,51:2
57,52:1
57,53:1
57,58:1
57,59:2
57,60:1
57,61:1
57,66:2
57,68:1
57,69:1
57,70:1
57,71:1
57,72:1
58,19:1
58,22:2
58,23:2
58,24:2
58,25:1
58,26:3
58,28:3
58,33:2
58,34:2
58,35:1
58,36:1
58,37:1
58,40:3
58,43:3
58,44:3
58,45:3
58,46:3
58,47:3
58,49:3
58,50:3
58,51:3
58,59:3
58,61:2
58,62:1
58,63:1
58,64:1
58,65:1
58,66:3
58,67:2
58,68:2
58,69:2
58,71:2
58,72:2
58,80:1
59,19:2
59,22:1
59,23:1
59,24:1
59,25:2
59,27:3
59,29:3
59,31:3
59,32:3
59,33:1
59,34:1
59,35:2
59,36:2
59,37:2
59,38:3
59,39:3
59,41:3
59,42:3
59,48:3
59,52:3
59,53:3
59,58:3
59,60:3
59,61:1
59,62:2
59,63:2
59,64:2
59,65:2
59,67:1
59,68:1
59,69:1
59,70:3
59,71:1
59,72:1
59,80:2
60,19:1
60,22:2
60,23:2
60,24:2
60,25:1
60,26:3
60,28:3
60,33:2
60,34:2
60,35:1
60,36:1
60,37:1
60,40:3
60,43:3
60,44:3
60,45:3
60,46:3
60,47:3
60,49:3
60,50:3
60,51:3
60,59:3
60,61:2
60,62:1
60,63:1
60,64:1
60,65:1
60,66:3
60,67:2
60,68:2
60,69:2
60,71:2
60,72:2
60,80:1
61,19:1
61,25:1
61,26:1
61,27:2
61,28:1
61,29:2
61,31:2
61,32:2
61,35:1
61,36:1
61,37:1
61,38:2
61,39:2
61,40:1
61,41:2
61,42:2
61,43:1
61,44:1
61,45:1
61,46:1
61,47:1
61,48:2
61,49:1
61,50:1
61,51:1
61,52:2
61,53:2
61,58:2
61,59:1
61,60:2
61,62:1
61,63:1
61,64:1
61,65:1
61,66:1
61,70:2
61,80:1
62,22:1
62,23:1
62,24:1
62,26:2
62,27:1
62,28:2
62,29:1
62,31:1
62,32:1
62,33:1
62,34:1
62,38:1
62,39:1
62,40:2
62,41:1
62,42:1
62,43:2
62,44:2
62,45:2
62,46:2
62,47:2
62,48:1
62,49:2
62,50:2
62,51:2
62,52:1
62,53:1
62,58:1
62,59:2
62,60:1
62,61:1
62,66:2
62,67:1
62,68:1
62,69:1
62,70:1
62,71:1
62,72:1
63,22:1
63,23:1
63,24:1
63,26:2
63,27:1
63,28:2
63,29:1
63,31:1
63,32:1
63,33:1
63,34:1
63,38:1
63,39:1
63,40:2
63,41:1
63,42:1
63,43:2
63,44:2
63,45:2
63,46:2
63,47:2
63,48:1
63,49:2
63,50:2
63,51:2
63,52:1
63,53:1
63,58:1
63,59:2
63,60:1
63,61:1
63,66:2
63,67:1
63,68:1
63,69:1
63,70:1
63,71:1
63,72:1
64,22:1
64,23:1
64,24:1
64,26:2
64,27:1
64,28:2
64,29:1
64,31:1
64,32:1
64,33:1
64,34:1
64,38:1
64,39:1
64,40:2
64,41:1
64,42:1
64,43:2
64,44:2
64,45:2
64,46:2
64,47:2
64,48:1
64,49:2
64,50:2
64,51:2
64,52:1
64,53:1
64,58:1
64,59:2
64,60:1
64,61:1
64,66:2
64,67:1
64,68:1
64,69:1
64,70:1
64,71:1
64,72:1
65,22:1
65,23:1
65,24:1
65,26:2
65,27:1
65,28:2
65,29:1
65,31:1
65,32:1
65,33:1
65,34:1
65,38:1
65,39:1
65,40:2
65,41:1
65,42:1
65,43:2
65,44:2
65,45:2
65,46:2
65,47:2
65,48:1
65,49:2
65,50:2
65,51:2
65,52:1
65,53:1
65,58:1
65,59:2
65,60:1
65,61:1
65,66:2
65,67:1
65,68:1
65,69:1
65,70:1
65,71:1
65,72:1
66,19:2
66,22:1
66,23:1
66,24:1
66,25:2
66,27:3
66,29:3
66,31:3
66,32:3
66,33:1
66,34:1
66,35:2
66,36:2
66,37:2
66,38:3
66,39:3
66,41:3
66,42:3
66,48:3
66,52:3
66,53:3
66,58:3
66,60:3
66,61:1
66,62:2
66,63:2
66,64:2
66,65:2
66,67:1
66,68:1
66,69:1
66,70:3
66,71:1
66,72:1
66,80:2
67,19:1
67,25:1
67,26:1
67,27:2
67,28:1
67,29:2
67,31:2
67,32:2
67,35:1
67,36:1
67,37:1
67,38:2
67,39:2
67,40:1
67,41:2
67,42:2
67,43:1
67,44:1
67,45:1
67,46:1
67,47:1
67,48:2
67,49:1
67,50:1
67,51:1
67,52:2
67,53:2
67,70:2
67,73:1
67,80:1
68,16:1
68,21:1
68,48:2
68,54:1
68,55:1
68,56:1
68,57:1
68,58:2
68,59:1
68,60:2
68,62:1
68,63:1
68,64:1
68,65:1
68,66:1
68,70:2
68,73:1
68,74:1
68,75:2
68,76:2
68,77:2
69,16:1
69,21:1
69,48:2
69,54:1
69,55:1
69,56:1
69,57:1
69,58:2
69,59:1
69,60:2
69,62:1
69,63:1
69,64:1
69,65:1
69,66:1
69,70:2
69,73:1
69,74:1
69,75:2
69,76:2
69,77:2
70,16:1
70,21:1
70,30:2
70,54:3
70,55:1
70,56:1
70,57:1
70,59:3
70,61:2
70,62:1
70,63:1
70,64:1
70,65:1
70,66:3
70,67:2
70,68:2
70,69:2
70,71:2
70,72:2
70,73:1
70,74:1
71,16:1
71,21:1
71,48:2
71,54:1
71,55:1
71,56:1
71,57:1
71,58:2
71,59:1
71,60:2
71,62:1
71,63:1
71,64:1
71,65:1
71,66:1
71,70:2
71,73:1
71,80:1
72,16:1
72,21:1
72,48:2
72,54:1
72,55:1
72,56:1
72,57:1
72,58:2
72,59:1
72,60:2
72,62:1
72,63:1
72,64:1
72,65:1
72,66:1
72,73:1
72,74:1
72,75:2
72,76:2
72,77:2
72,78:2
72,80:1
73,48:1
73,68:1
73,69:1
73,70:1
73,72:1
74,48:1
74,68:1
74,69:1
74,70:1
74,72:1
74,75:1
74,76:1
75,68:2
75,69:2
75,72:2
75,80:1
76,68:2
76,69:2
76,72:2
76,80:1
77,68:2
77,69:2
77,72:2
77,80:1
78,80:1
79,80:1
80,30:1
80,48:1
80,54:2
80,58:1
80,59:2
80,60:1
80,61:1
80,66:2
80,67:1
80,71:1
80,75:1
80,76:1
80,77:1
80,78:1
80,79:1
80,81:1
81,84:3
82,84:3
83,84:3
83,86:3
84,48:3
84,82:3
84,83:3
84,85:3
85,84:3
85,86:3
86,48:3
86,87:3

<setup times backward>
1,30:1
2,30:1
3,30:1
4,30:1
5,1:1
5,2:1
5,3:1
5,4:1
5,7:1
5,8:1
5,9:2
5,13:2
5,30:2
6,1:1
6,2:1
6,3:1
6,4:1
6,7:1
6,8:1
6,9:2
6,10:2
6,30:2
7,9:1
7,10:1
7,30:1
8,9:1
8,10:1
8,13:1
8,14:1
8,30:1
11,1:1
11,2:1
11,3:1
11,4:1
11,7:1
11,8:1
11,9:2
11,10:2
11,30:2
12,1:1
12,2:1
12,3:1
12,4:1
12,7:1
12,8:1
12,9:2
12,10:2
12,30:2
15,9:1
15,10:1
15,13:1
15,14:1
15,30:1
16,9:1
16,10:1
16,13:1
16,14:1
16,22:1
16,23:1
16,24:1
16,26:2
16,28:2
16,30:1
16,33:1
16,34:1
16,40:2
16,43:2
16,44:2
16,45:2
16,46:2
16,47:2
16,49:2
16,50:2
16,51:2
16,68:1
16,69:1
16,71:1
16,72:1
17,9:1
17,10:1
17,13:1
17,14:1
17,30:1
18,9:1
18,10:1
18,13:1
18,14:1
18,30:1
19,9:1
19,10:1
19,13:1
19,14:1
19,28:2
19,30:1
19,54:2
19,59:2
19,61:1
19,66:2
19,67:1
20,9:1
20,10:1
20,13:1
20,14:1
20,22:1
20,23:1
20,24:1
20,26:2
20,30:1
21,9:1
21,10:1
21,13:1
21,14:1
21,22:1
21,23:1
21,24:1
21,26:2
21,28:2
21,30:1
21,33:1
21,34:1
21,40:2
21,43:2
21,44:2
21,45:2
21,46:2
21,47:2
21,49:2
21,50:2
21,51:2
21,68:1
21,69:1
21,71:1
21,72:1
22,28:1
22,54:1
22,59:1
22,66:1
23,28:1
23,54:1
23,59:1
23,66:1
24,28:1
24,54:1
24,59:1
24,66:1
25,9:1
25,10:1
25,13:1
25,14:1
25,22:1
25,23:1
25,24:1
25,28:2
25,30:1
25,54:2
25,59:2
25,61:1
25,66:2
25,67:1
27,1:1
27,2:1
27,3:1
27,4:1
27,7:1
27,8:1
27,9:2
27,10:2
27,13:2
27,14:2
27,15:1
27,16:1
27,17:1
27,18:1
27,19:1
27,20:1
27,21:1
27,22:2
27,23:2
27,24:2
27,25:1
27,26:3
27,28:3
27,30:2
27,54:3
27,55:1
27,56:1
27,57:1
27,59:3
27,61:2
27,62:1
27,63:1
27,64:1
27,65:1
27,66:3
27,67:2
29,1:1
29,2:1
29,3:1
29,4:1
29,7:1
29,8:1
29,9:2
29,10:2
29,13:2
29,14:2
29,15:1
29,16:1
29,17:1
29,18:1
29,19:1
29,20:1
29,21:1
29,22:2
29,23:2
29,24:2
29,25:1
29,26:3
29,28:3
29,30:2
29,54:3
29,55:1
29,56:1
29,57:1
29,59:3
29,61:2
29,62:1
29,63:1
29,64:1
29,65:1
29,66:3
29,67:2
30,26:1
30,28:1
30,40:1
30,43:1
30,44:1
30,45:1
30,46:1
30,47:1
30,49:1
30,50:1
30,51:1
31,1:1
31,2:1
31,3:1
31,4:1
31,7:1
31,8:1
31,9:2
31,10:2
31,13:2
31,14:2
31,15:1
31,16:1
31,17:1
31,18:1
31,19:1
31,20:1
31,21:1
31,22:2
31,23:2
31,24:2
31,25:1
31,26:3
31,28:3
31,30:2
31,54:3
31,55:1
31,56:1
31,57:1
31,59:3
31,61:2
31,62:1
31,63:1
31,64:1
31,65:1
31,66:3
31,67:2
32,1:1
32,2:1
32,3:1
32,4:1
32,7:1
32,8:1
32,9:2
32,10:2
32,13:2
32,14:2
32,15:1
32,16:1
32,17:1
32,18:1
32,19:1
32,20:1
32,21:1
32,22:2
32,23:2
32,24:2
32,25:1
32,26:3
32,28:3
32,30:2
32,54:3
32,55:1
32,56:1
32,57:1
32,59:3
32,61:2
32,62:1
32,63:1
32,64:1
32,65:1
32,66:3
32,67:2
33,26:1
33,28:1
33,54:1
33,59:1
33,66:1
34,26:1
34,28:1
34,54:1
34,59:1
34,66:1
35,9:1
35,10:1
35,13:1
35,14:1
35,22:1
35,23:1
35,24:1
35,26:2
35,28:2
35,30:1
35,33:1
35,34:1
35,54:2
35,59:2
35,61:1
35,66:2
35,67:1
36,9:1
36,10:1
36,13:1
36,14:1
36,22:1
36,23:1
36,24:1
36,26:2
36,28:2
36,30:1
36,33:1
36,34:1
36,54:2
36,59:2
36,61:1
36,66:2
36,67:1
37,9:1
37,10:1
37,13:1
37,14:1
37,22:1
37,23:1
37,24:1
37,26:2
37,28:2
37,30:1
37,33:1
37,34:1
37,54:2
37,59:2
37,61:1
37,66:2
37,67:1
38,1:1
38,2:1
38,3:1
38,4:1
38,7:1
38,8:1
38,9:2
38,10:2
38,13:2
38,14:2
38,15:1
38,16:1
38,17:1
38,18:1
38,19:1
38,20:1
38,21:1
38,22:2
38,23:2
38,24:2
38,25:1
38,26:3
38,28:3
38,30:2
38,33:2
38,34:2
38,35:1
38,36:1
38,37:1
38,54:3
38,55:1
38,56:1
38,57:1
38,59:3
38,61:2
38,62:1
38,63:1
38,64:1
38,65:1
38,66:3
38,67:2
39,1:1
39,2:1
39,3:1
39,4:1
39,7:1
39,8:1
39,9:2
39,10:2
39,13:2
39,14:2
39,15:1
39,16:1
39,17:1
39,18:1
39,19:1
39,20:1
39,21:1
39,22:2
39,23:2
39,24:2
39,25:1
39,26:3
39,28:3
39,30:2
39,33:2
39,34:2
39,35:1
39,36:1
39,37:1
39,54:3
39,55:1
39,56:1
39,57:1
39,59:3
39,61:2
39,62:1
39,63:1
39,64:1
39,65:1
39,66:3
39,67:2
41,1:1
41,2:1
41,3:1
41,4:1
41,7:1
41,8:1
41,9:2
41,10:2
41,13:2
41,14:2
41,15:1
41,16:1
41,17:1
41,18:1
41,19:1
41,20:1
41,21:1
41,22:2
41,23:2
41,24:2
41,25:1
41,26:3
41,28:3
41,30:2
41,33:2
41,34:2
41,35:1
41,36:1
41,37:1
41,40:3
41,43:3
41,44:3
41,45:3
41,46:3
41,47:3
41,49:3
41,50:3
41,51:3
41,54:3
41,55:1
41,56:1
41,57:1
41,59:3
41,61:2
41,62:1
41,63:1
41,64:1
41,65:1
41,66:3
41,67:2
42,1:1
42,2:1
42,3:1
42,4:1
42,7:1
42,8:1
42,9:2
42,10:2
42,13:2
42,14:2
42,15:1
42,16:1
42,17:1
42,18:1
42,19:1
42,20:1
42,21:1
42,22:2
42,23:2
42,24:2
42,25:1
42,26:3
42,28:3
42,30:2
42,33:2
42,34:2
42,35:1
42,36:1
42,37:1
42,40:3
42,43:3
42,44:3
42,45:3
42,46:3
42,47:3
42,49:3
42,50:3
42,51:3
42,54:3
42,55:1
42,56:1
42,57:1
42,59:3
42,61:2
42,62:1
42,63:1
42,64:1
42,65:1
42,66:3
42,67:2
48,1:1
48,2:1
48,3:1
48,4:1
48,7:1
48,8:1
48,9:2
48,10:2
48,13:2
48,14:2
48,15:1
48,16:1
48,17:1
48,18:1
48,19:1
48,20:1
48,21:1
48,22:2
48,23:2
48,24:2
48,25:1
48,26:3
48,28:3
48,30:2
48,33:2
48,34:2
48,35:1
48,36:1
48,37:1
48,40:3
48,43:3
48,44:3
48,45:3
48,46:3
48,47:3
48,49:3
48,50:3
48,51:3
48,54:3
48,55:1
48,56:1
48,57:1
48,59:3
48,61:2
48,62:1
48,63:1
48,64:1
48,65:1
48,66:3
48,67:2
48,68:2
48,69:2
48,71:2
48,72:2
48,73:1
48,74:1
48,80:1
48,84:3
48,86:3
52,1:1
52,2:1
52,3:1
52,4:1
52,7:1
52,8:1
52,9:2
52,10:2
52,13:2
52,14:2
52,15:1
52,16:1
52,17:1
52,18:1
52,19:1
52,20:1
52,21:1
52,22:2
52,23:2
52,24:2
52,25:1
52,26:3
52,28:3
52,30:2
52,33:2
52,34:2
52,35:1
52,36:1
52,37:1
52,40:3
52,43:3
52,44:3
52,45:3
52,46:3
52,47:3
52,49:3
52,50:3
52,51:3
52,54:3
52,55:1
52,56:1
52,57:1
52,59:3
52,61:2
52,62:1
52,63:1
52,64:1
52,65:1
52,66:3
52,67:2
53,1:1
53,2:1
53,3:1
53,4:1
53,7:1
53,8:1
53,9:2
53,10:2
53,13:2
53,14:2
53,15:1
53,16:1
53,17:1
53,18:1
53,19:1
53,20:1
53,21:1
53,22:2
53,23:2
53,24:2
53,25:1
53,26:3
53,28:3
53,30:2
53,33:2
53,34:2
53,35:1
53,36:1
53,37:1
53,40:3
53,43:3
53,44:3
53,45:3
53,46:3
53,47:3
53,49:3
53,50:3
53,51:3
53,54:3
53,55:1
53,56:1
53,57:1
53,59:3
53,61:2
53,62:1
53,63:1
53,64:1
53,65:1
53,66:3
53,67:2
55,9:1
55,10:1
55,13:1
55,14:1
55,22:1
55,23:1
55,24:1
55,26:2
55,28:2
55,30:1
55,33:1
55,34:1
55,40:2
55,43:2
55,44:2
55,45:2
55,46:2
55,47:2
55,49:2
55,50:2
55,51:2
55,54:2
55,68:1
55,69:1
55,71:1
55,72:1
56,9:1
56,10:1
56,13:1
56,14:1
56,22:1
56,23:1
56,24:1
56,26:2
56,28:2
56,30:1
56,33:1
56,34:1
56,40:2
56,43:2
56,44:2
56,45:2
56,46:2
56,47:2
56,49:2
56,50:2
56,51:2
56,54:2
56,68:1
56,69:1
56,71:1
56,72:1
57,9:1
57,10:1
57,13:1
57,14:1
57,22:1
57,23:1
57,24:1
57,26:2
57,28:2
57,30:1
57,33:1
57,34:1
57,40:2
57,43:2
57,44:2
57,45:2
57,46:2
57,47:2
57,49:2
57,50:2
57,51:2
57,54:2
57,68:1
57,69:1
57,71:1
57,72:1
58,1:1
58,2:1
58,3:1
58,4:1
58,7:1
58,8:1
58,9:2
58,10:2
58,13:2
58,14:2
58,15:1
58,16:1
58,17:1
58,18:1
58,19:1
58,20:1
58,21:1
58,22:2
58,23:2
58,24:2
58,25:1
58,26:3
58,28:3
58,30:2
58,33:2
58,34:2
58,35:1
58,36:1
58,37:1
58,40:3
58,43:3
58,44:3
58,45:3
58,46:3
58,47:3
58,49:3
58,50:3
58,51:3
58,54:3
58,55:1
58,56:1
58,57:1
58,59:3
58,61:2
58,62:1
58,63:1
58,64:1
58,65:1
58,66:3
58,68:2
58,69:2
58,71:2
58,72:2
58,80:1
60,1:1
60,2:1
60,3:1
60,4:1
60,7:1
60,8:1
60,9:2
60,10:2
60,13:2
60,14:2
60,15:1
60,16:1
60,17:1
60,18:1
60,19:1
60,20:1
60,21:1
60,22:2
60,23:2
60,24:2
60,25:1
60,26:3
60,28:3
60,30:2
60,33:2
60,34:2
60,35:1
60,36:1
60,37:1
60,40:3
60,43:3
60,44:3
60,45:3
60,46:3
60,47:3
60,49:3
60,50:3
60,51:3
60,54:3
60,55:1
60,56:1
60,57:1
60,59:3
60,61:2
60,62:1
60,63:1
60,64:1
60,65:1
60,66:3
60,68:2
60,69:2
60,71:2
60,72:2
60,80:1
61,26:1
61,28:1
61,40:1
61,43:1
61,44:1
61,45:1
61,46:1
61,47:1
61,49:1
61,50:1
61,51:1
61,54:1
61,59:1
61,66:1
62,9:1
62,10:1
62,13:1
62,14:1
62,22:1
62,23:1
62,24:1
62,26:2
62,28:2
62,30:1
62,33:1
62,34:1
62,40:2
62,43:2
62,44:2
62,45:2
62,46:2
62,47:2
62,49:2
62,50:2
62,51:2
62,54:2
62,59:2
62,61:1
62,66:2
62,68:1
62,69:1
62,71:1
62,72:1
63,9:1
63,10:1
63,13:1
63,14:1
63,22:1
63,23:1
63,24:1
63,26:2
63,28:2
63,30:1
63,33:1
63,34:1
63,40:2
63,43:2
63,44:2
63,45:2
63,46:2
63,47:2
63,49:2
63,50:2
63,51:2
63,54:2
63,59:2
63,61:1
63,66:2
63,68:1
63,69:1
63,71:1
63,72:1
64,9:1
64,10:1
64,13:1
64,14:1
64,22:1
64,23:1
64,24:1
64,26:2
64,28:2
64,30:1
64,33:1
64,34:1
64,40:2
64,43:2
64,44:2
64,45:2
64,46:2
64,47:2
64,49:2
64,50:2
64,51:2
64,54:2
64,59:2
64,61:1
64,66:2
64,68:1
64,69:1
64,71:1
64,72:1
65,9:1
65,10:1
65,13:1
65,14:1
65,22:1
65,23:1
65,24:1
65,26:2
65,28:2
65,30:1
65,33:1
65,34:1
65,40:2
65,43:2
65,44:2
65,45:2
65,46:2
65,47:2
65,49:2
65,50:2
65,51:2
65,54:2
65,59:2
65,61:1
65,66:2
65,68:1
65,69:1
65,71:1
65,72:1
67,26:1
67,28:1
67,40:1
67,43:1
67,44:1
67,45:1
67,46:1
67,47:1
67,49:1
67,50:1
67,51:1
67,54:1
67,59:1
67,66:1
68,26:1
68,28:1
68,40:1
68,43:1
68,44:1
68,45:1
68,46:1
68,47:1
68,49:1
68,50:1
68,51:1
68,54:1
68,59:1
68,66:1
69,26:1
69,28:1
69,40:1
69,43:1
69,44:1
69,45:1
69,46:1
69,47:1
69,49:1
69,50:1
69,51:1
69,54:1
69,59:1
69,66:1
70,1:1
70,2:1
70,3:1
70,4:1
70,7:1
70,8:1
70,9:2
70,10:2
70,13:2
70,14:2
70,15:1
70,16:1
70,17:1
70,18:1
70,19:1
70,20:1
70,21:1
70,22:2
70,23:2
70,24:2
70,25:1
70,26:3
70,28:3
70,30:2
70,33:2
70,34:2
70,35:1
70,36:1
70,37:1
70,40:3
70,43:3
70,44:3
70,45:3
70,46:3
70,47:3
70,49:3
70,50:3
70,51:3
70,54:3
70,55:1
70,56:1
70,57:1
70,59:3
70,61:2
70,62:1
70,63:1
70,64:1
70,65:1
70,66:3
70,67:2
70,68:2
70,69:2
70,71:2
70,73:1
70,74:1
71,26:1
71,28:1
71,40:1
71,43:1
71,44:1
71,45:1
71,46:1
71,47:1
71,49:1
71,50:1
71,51:1
71,54:1
71,59:1
71,66:1
72,26:1
72,28:1
72,40:1
72,43:1
72,44:1
72,45:1
72,46:1
72,47:1
72,49:1
72,50:1
72,51:1
72,54:1
72,59:1
72,66:1
73,9:1
73,10:1
73,13:1
73,14:1
73,22:1
73,23:1
73,24:1
73,26:2
73,28:2
73,30:1
73,33:1
73,34:1
73,40:2
73,43:2
73,44:2
73,45:2
73,46:2
73,47:2
73,49:2
73,50:2
73,51:2
73,54:2
73,59:2
73,61:1
73,66:2
73,67:1
73,68:1
73,69:1
73,71:1
73,72:1
74,9:1
74,10:1
74,13:1
74,14:1
74,22:1
74,23:1
74,24:1
74,26:2
74,28:2
74,30:1
74,33:1
74,34:1
74,40:2
74,43:2
74,44:2
74,45:2
74,46:2
74,47:2
74,49:2
74,50:2
74,51:2
74,54:2
74,59:2
74,61:1
74,66:2
74,67:1
74,68:1
74,69:1
74,71:1
74,72:1
75,1:1
75,2:1
75,3:1
75,4:1
75,7:1
75,8:1
75,9:2
75,10:2
75,13:2
75,14:2
75,15:1
75,16:1
75,17:1
75,18:1
75,19:1
75,20:1
75,21:1
75,22:2
75,23:2
75,24:2
75,25:1
75,26:3
75,28:3
75,30:2
75,33:2
75,34:2
75,35:1
75,36:1
75,37:1
75,40:3
75,43:3
75,44:3
75,45:3
75,46:3
75,47:3
75,49:3
75,50:3
75,51:3
75,54:3
75,55:1
75,56:1
75,57:1
75,59:3
75,61:2
75,62:1
75,63:1
75,64:1
75,65:1
75,66:3
75,67:2
75,68:2
75,69:2
75,71:2
75,72:2
75,73:1
75,74:1
75,80:1
76,1:1
76,2:1
76,3:1
76,4:1
76,7:1
76,8:1
76,9:2
76,10:2
76,13:2
76,14:2
76,15:1
76,16:1
76,17:1
76,18:1
76,19:1
76,20:1
76,21:1
76,22:2
76,23:2
76,24:2
76,25:1
76,26:3
76,28:3
76,30:2
76,33:2
76,34:2
76,35:1
76,36:1
76,37:1
76,40:3
76,43:3
76,44:3
76,45:3
76,46:3
76,47:3
76,49:3
76,50:3
76,51:3
76,54:3
76,55:1
76,56:1
76,57:1
76,59:3
76,61:2
76,62:1
76,63:1
76,64:1
76,65:1
76,66:3
76,67:2
76,68:2
76,69:2
76,71:2
76,72:2
76,73:1
76,74:1
76,80:1
77,1:1
77,2:1
77,3:1
77,4:1
77,7:1
77,8:1
77,9:2
77,10:2
77,13:2
77,14:2
77,15:1
77,16:1
77,17:1
77,18:1
77,19:1
77,20:1
77,21:1
77,22:2
77,23:2
77,24:2
77,25:1
77,26:3
77,28:3
77,30:2
77,33:2
77,34:2
77,35:1
77,36:1
77,37:1
77,40:3
77,43:3
77,44:3
77,45:3
77,46:3
77,47:3
77,49:3
77,50:3
77,51:3
77,54:3
77,55:1
77,56:1
77,57:1
77,59:3
77,61:2
77,62:1
77,63:1
77,64:1
77,65:1
77,66:3
77,67:2
77,68:2
77,69:2
77,71:2
77,72:2
77,73:1
77,74:1
77,80:1
78,1:1
78,2:1
78,3:1
78,4:1
78,7:1
78,8:1
78,9:2
78,10:2
78,13:2
78,14:2
78,15:1
78,16:1
78,17:1
78,18:1
78,19:1
78,20:1
78,21:1
78,22:2
78,23:2
78,24:2
78,25:1
78,26:3
78,28:3
78,30:2
78,33:2
78,34:2
78,35:1
78,36:1
78,37:1
78,40:3
78,43:3
78,44:3
78,45:3
78,46:3
78,47:3
78,49:3
78,50:3
78,51:3
78,54:3
78,55:1
78,56:1
78,57:1
78,59:3
78,61:2
78,62:1
78,63:1
78,64:1
78,65:1
78,66:3
78,67:2
78,68:2
78,69:2
78,71:2
78,72:2
78,73:1
78,74:1
78,80:1
79,1:1
79,2:1
79,3:1
79,4:1
79,7:1
79,8:1
79,9:2
79,10:2
79,13:2
79,14:2
79,15:1
79,16:1
79,17:1
79,18:1
79,19:1
79,20:1
79,21:1
79,22:2
79,23:2
79,24:2
79,25:1
79,26:3
79,28:3
79,30:2
79,33:2
79,34:2
79,35:1
79,36:1
79,37:1
79,40:3
79,43:3
79,44:3
79,45:3
79,46:3
79,47:3
79,49:3
79,50:3
79,51:3
79,54:3
79,55:1
79,56:1
79,57:1
79,59:3
79,61:2
79,62:1
79,63:1
79,64:1
79,65:1
79,66:3
79,67:2
79,68:2
79,69:2
79,71:2
79,72:2
79,73:1
79,74:1
79,80:1
80,9:1
80,10:1
80,13:1
80,14:1
80,22:1
80,23:1
80,24:1
80,26:2
80,28:2
80,30:1
80,33:1
80,34:1
80,40:2
80,43:2
80,44:2
80,45:2
80,46:2
80,47:2
80,49:2
80,50:2
80,51:2
80,54:2
80,59:2
80,61:1
80,66:2
80,67:1
80,68:1
80,69:1
80,71:1
80,72:1
81,1:1
81,2:1
81,3:1
81,4:1
81,7:1
81,8:1
81,9:2
81,10:2
81,13:2
81,14:2
81,15:1
81,16:1
81,17:1
81,18:1
81,19:1
81,20:1
81,21:1
81,22:2
81,23:2
81,24:2
81,25:1
81,26:3
81,28:3
81,30:2
81,33:2
81,34:2
81,35:1
81,36:1
81,37:1
81,40:3
81,43:3
81,44:3
81,45:3
81,46:3
81,47:3
81,49:3
81,50:3
81,51:3
81,54:3
81,55:1
81,56:1
81,57:1
81,59:3
81,61:2
81,62:1
81,63:1
81,64:1
81,65:1
81,66:3
81,67:2
81,68:2
81,69:2
81,71:2
81,72:2
81,73:1
81,74:1
81,80:1
82,1:1
82,2:1
82,3:1
82,4:1
82,7:1
82,8:1
82,9:2
82,10:2
82,13:2
82,14:2
82,15:1
82,16:1
82,17:1
82,18:1
82,19:1
82,20:1
82,21:1
82,22:2
82,23:2
82,24:2
82,25:1
82,26:3
82,28:3
82,30:2
82,33:2
82,34:2
82,35:1
82,36:1
82,37:1
82,40:3
82,43:3
82,44:3
82,45:3
82,46:3
82,47:3
82,49:3
82,50:3
82,51:3
82,54:3
82,55:1
82,56:1
82,57:1
82,59:3
82,61:2
82,62:1
82,63:1
82,64:1
82,65:1
82,66:3
82,67:2
82,68:2
82,69:2
82,71:2
82,72:2
82,73:1
82,74:1
82,80:1
82,84:3
83,1:1
83,2:1
83,3:1
83,4:1
83,7:1
83,8:1
83,9:2
83,10:2
83,13:2
83,14:2
83,15:1
83,16:1
83,17:1
83,18:1
83,19:1
83,20:1
83,21:1
83,22:2
83,23:2
83,24:2
83,25:1
83,26:3
83,28:3
83,30:2
83,33:2
83,34:2
83,35:1
83,36:1
83,37:1
83,40:3
83,43:3
83,44:3
83,45:3
83,46:3
83,47:3
83,49:3
83,50:3
83,51:3
83,54:3
83,55:1
83,56:1
83,57:1
83,59:3
83,61:2
83,62:1
83,63:1
83,64:1
83,65:1
83,66:3
83,67:2
83,68:2
83,69:2
83,71:2
83,72:2
83,73:1
83,74:1
83,80:1
83,84:3
85,1:1
85,2:1
85,3:1
85,4:1
85,7:1
85,8:1
85,9:2
85,10:2
85,13:2
85,14:2
85,15:1
85,16:1
85,17:1
85,18:1
85,19:1
85,20:1
85,21:1
85,22:2
85,23:2
85,24:2
85,25:1
85,26:3
85,28:3
85,30:2
85,33:2
85,34:2
85,35:1
85,36:1
85,37:1
85,40:3
85,43:3
85,44:3
85,45:3
85,46:3
85,47:3
85,49:3
85,50:3
85,51:3
85,54:3
85,55:1
85,56:1
85,57:1
85,59:3
85,61:2
85,62:1
85,63:1
85,64:1
85,65:1
85,66:3
85,67:2
85,68:2
85,69:2
85,71:2
85,72:2
85,73:1
85,74:1
85,80:1
85,84:3
87,1:1
87,2:1
87,3:1
87,4:1
87,7:1
87,8:1
87,9:2
87,10:2
87,13:2
87,14:2
87,15:1
87,16:1
87,17:1
87,18:1
87,19:1
87,20:1
87,21:1
87,22:2
87,23:2
87,24:2
87,25:1
87,26:3
87,28:3
87,30:2
87,33:2
87,34:2
87,35:1
87,36:1
87,37:1
87,40:3
87,43:3
87,44:3
87,45:3
87,46:3
87,47:3
87,49:3
87,50:3
87,51:3
87,54:3
87,55:1
87,56:1
87,57:1
87,59:3
87,61:2
87,62:1
87,63:1
87,64:1
87,65:1
87,66:3
87,67:2
87,68:2
87,69:2
87,71:2
87,72:2
87,73:1
87,74:1
87,80:1
87,84:3
87,86:3
88,1:1
88,2:1
88,3:1
88,4:1
88,7:1
88,8:1
88,9:2
88,10:2
88,13:2
88,14:2
88,15:1
88,16:1
88,17:1
88,18:1
88,19:1
88,20:1
88,21:1
88,22:2
88,23:2
88,24:2
88,25:1
88,26:3
88,28:3
88,30:2
88,33:2
88,34:2
88,35:1
88,36:1
88,37:1
88,40:3
88,43:3
88,44:3
88,45:3
88,46:3
88,47:3
88,49:3
88,50:3
88,51:3
88,54:3
88,55:1
88,56:1
88,57:1
88,59:3
88,61:2
88,62:1
88,63:1
88,64:1
88,65:1
88,66:3
88,67:2
88,68:2
88,69:2
88,71:2
88,72:2
88,73:1
88,74:1
88,80:1
88,84:3
88,86:3
89,1:1
89,2:1
89,3:1
89,4:1
89,7:1
89,8:1
89,9:2
89,10:2
89,13:2
89,14:2
89,15:1
89,16:1
89,17:1
89,18:1
89,19:1
89,20:1
89,21:1
89,22:2
89,23:2
89,24:2
89,25:1
89,26:3
89,28:3
89,30:2
89,33:2
89,34:2
89,35:1
89,36:1
89,37:1
89,40:3
89,43:3
89,44:3
89,45:3
89,46:3
89,47:3
89,49:3
89,50:3
89,51:3
89,54:3
89,55:1
89,56:1
89,57:1
89,59:3
89,61:2
89,62:1
89,63:1
89,64:1
89,65:1
89,66:3
89,67:2
89,68:2
89,69:2
89,71:2
89,72:2
89,73:1
89,74:1
89,80:1
89,84:3
89,86:3

<end>

<optimal SALBP-1 value>
23


<rand seed>
467321153

